<number of tasks>
89

<cycle time>
110

<task times>
1 28
2 17
3 7
4 10
5 12
6 16
7 13
8 8
9 13
10 24
11 16
12 24
13 12
14 20
15 22
16 22
17 22
18 47
19 6
20 12
21 6
22 22
23 7
24 14
25 68
26 15
27 8
28 74
29 32
30 11
31 18
32 15
33 42
34 27
35 38
36 38
37 26
38 35
39 31
40 8
41 14
42 8
43 8
44 8
45 17
46 7
47 19
48 12
49 24
50 26
51 22
52 14
53 27
54 60
55 4
56 2
57 1
58 9
59 5
60 6
61 7
62 12
63 2
64 11
65 14
66 6
67 21
68 14
69 1
70 6
71 21
72 11
73 14
74 28
75 12
76 11
77 30
78 22
79 14
80 31
81 18
82 16
83 7
84 38
85 8
86 31
87 29
88 12
89 18

<precedence relations>
1,2
2,3
3,4
4,5
4,6
4,7
4,8
4,9
5,10
6,11
7,12
8,18
9,18
10,14
11,12
12,13
13,14
14,15
14,16
15,17
16,54
17,18
18,19
18,20
19,22
20,21
20,28
21,54
22,23
23,24
24,25
25,26
25,27
25,29
26,37
27,33
28,29
29,31
30,54
31,32
32,33
33,34
34,35
35,36
35,37
36,38
37,38
38,39
39,40
39,41
39,42
39,43
40,44
41,53
42,53
43,45
44,52
45,46
46,47
47,48
47,49
49,50
50,51
51,52
52,53
53,68
53,69
53,70
53,71
54,55
55,56
56,57
57,58
57,59
57,60
57,61
57,62
57,63
57,64
57,65
57,66
58,67
59,67
60,67
61,67
62,67
63,67
64,67
65,67
66,67
67,73
68,72
69,72
70,72
71,73
72,78
72,80
73,74
74,75
74,76
75,77
76,81
77,78
78,79
79,81
80,81
81,82
81,84
81,85
82,83
83,86
84,86
85,86
86,87
87,88
87,89

<setup times forward>
4,5:1
4,9:1
5,6:1
5,7:1
5,8:1
5,9:2
5,30:1
6,5:1
6,9:1
6,10:1
6,11:1
7,5:1
7,9:1
7,10:1
7,11:1
7,12:1
8,5:1
8,9:1
8,10:1
8,11:1
8,12:1
8,13:1
8,14:1
8,15:1
8,16:1
8,17:1
8,18:1
9,5:2
9,6:1
9,7:1
9,8:1
9,10:2
9,11:2
9,12:2
9,13:2
9,14:2
9,30:1
10,6:1
10,7:1
10,8:1
10,9:2
10,30:1
11,7:1
11,8:1
11,9:2
11,30:1
12,8:1
12,9:2
12,30:1
13,8:1
13,9:2
13,30:1
14,8:1
14,9:2
14,15:2
14,16:2
14,30:1
15,8:1
15,30:1
16,8:1
16,20:1
16,21:1
16,22:1
16,23:1
16,24:1
16,25:1
16,26:1
16,28:1
16,29:1
16,30:1
16,31:1
16,32:1
16,33:1
16,34:1
16,35:1
16,36:2
16,37:1
16,38:2
16,39:2
16,40:1
16,42:1
16,44:1
16,48:1
16,50:1
16,51:1
16,52:1
16,53:1
16,68:1
16,69:1
16,70:1
16,71:1
16,72:1
16,80:2
17,8:1
17,30:1
18,20:1
18,30:1
19,20:1
19,21:1
19,22:1
19,28:1
19,30:1
19,59:1
19,60:2
19,63:1
19,64:1
19,65:1
19,67:1
20,16:1
20,19:1
20,27:1
21,16:1
21,19:1
21,27:1
21,34:2
21,35:2
21,36:1
21,37:2
21,38:1
21,39:1
21,40:2
21,41:1
21,43:1
21,44:2
21,45:1
21,46:1
21,47:1
21,48:2
21,49:1
21,50:2
21,51:2
21,52:2
21,54:1
21,80:1
22,16:1
22,54:1
22,55:1
22,56:1
22,57:1
22,58:1
22,59:2
22,60:1
22,61:1
22,62:1
22,64:2
22,65:2
22,66:1
22,67:2
23,16:1
23,54:1
23,55:1
23,56:1
23,57:1
23,58:1
23,59:2
23,60:1
23,61:1
23,62:1
23,64:2
23,65:2
23,66:1
23,67:2
24,16:1
24,54:1
24,55:1
24,56:1
24,57:1
24,58:1
24,59:2
24,60:1
24,61:1
24,62:1
24,64:2
24,65:2
24,66:1
24,67:2
25,16:1
25,27:1
25,54:1
25,55:1
25,56:1
25,57:1
25,58:1
25,59:2
25,60:1
25,61:1
25,62:1
25,64:2
25,65:2
25,66:1
25,67:2
26,16:1
26,27:1
26,34:2
26,35:2
26,36:1
26,37:2
26,54:1
26,55:1
26,56:1
26,57:1
26,58:1
26,59:2
26,60:1
26,61:1
26,62:1
26,64:2
26,65:2
26,66:1
26,67:2
27,20:1
27,21:1
27,26:1
27,28:1
27,29:1
27,30:1
27,31:1
27,32:1
27,33:1
27,59:1
27,60:2
27,63:1
27,64:1
27,65:1
27,67:1
28,16:1
28,19:1
28,27:1
28,54:1
28,55:1
28,56:1
28,57:1
28,58:1
28,59:2
28,60:1
28,61:1
28,62:1
28,64:2
28,65:2
28,66:1
28,67:2
29,16:1
29,27:1
29,54:1
29,55:1
29,56:1
29,57:1
29,58:1
29,59:2
29,60:1
29,61:1
29,62:1
29,64:2
29,65:2
29,66:1
29,67:2
30,5:1
30,9:1
30,10:1
30,11:1
30,12:1
30,13:1
30,14:1
30,15:1
30,16:1
30,17:1
30,18:1
30,19:1
30,27:1
30,34:2
30,35:2
30,36:1
30,37:2
30,38:1
30,39:1
30,40:2
30,41:1
30,43:1
30,44:2
30,45:1
30,46:1
30,47:1
30,48:2
30,49:1
30,50:2
30,51:2
30,52:2
30,54:1
30,80:1
31,16:1
31,27:1
31,54:1
31,55:1
31,56:1
31,57:1
31,58:1
31,59:2
31,60:1
31,61:1
31,62:1
31,64:2
31,65:2
31,66:1
31,67:2
32,16:1
32,27:1
32,54:1
32,55:1
32,56:1
32,57:1
32,58:1
32,59:2
32,60:1
32,61:1
32,62:1
32,64:2
32,65:2
32,66:1
32,67:2
33,16:1
33,34:2
33,54:1
33,55:1
33,56:1
33,57:1
33,58:1
33,59:2
33,60:1
33,61:1
33,62:1
33,64:2
33,65:2
33,66:1
33,67:2
34,16:1
34,21:2
34,26:2
34,30:2
34,54:1
34,55:1
34,56:1
34,57:1
34,58:1
34,60:3
34,61:1
34,62:1
34,63:2
34,66:1
35,16:1
35,21:2
35,26:2
35,30:2
35,36:3
35,54:1
35,55:1
35,56:1
35,57:1
35,58:1
35,60:3
35,61:1
35,62:1
35,63:2
35,66:1
36,16:2
36,21:1
36,26:1
36,30:1
36,37:3
36,54:2
36,55:2
36,56:2
36,57:2
36,58:2
36,59:3
36,61:2
36,62:2
36,63:1
36,64:3
36,65:3
36,66:2
36,67:3
37,16:1
37,21:2
37,30:2
37,36:3
37,38:3
37,54:1
37,55:1
37,56:1
37,57:1
37,58:1
37,60:3
37,61:1
37,62:1
37,63:2
37,66:1
38,16:2
38,21:1
38,30:1
38,54:2
38,55:2
38,56:2
38,57:2
38,58:2
38,59:3
38,61:2
38,62:2
38,63:1
38,64:3
38,65:3
38,66:2
38,67:3
39,16:2
39,21:1
39,30:1
39,40:3
39,41:2
39,42:1
39,43:2
39,54:2
39,55:2
39,56:2
39,57:2
39,58:2
39,59:3
39,61:2
39,62:2
39,63:1
39,64:3
39,65:3
39,66:2
39,67:3
40,16:1
40,21:2
40,30:2
40,41:1
40,42:2
40,43:1
40,45:1
40,46:1
40,47:1
40,49:1
40,54:1
40,55:1
40,56:1
40,57:1
40,58:1
40,60:3
40,61:1
40,62:1
40,63:2
40,66:1
41,21:1
41,30:1
41,40:1
41,42:1
41,44:1
41,48:1
41,50:1
41,51:1
41,52:1
41,53:1
41,59:1
41,60:2
41,63:1
41,64:1
41,65:1
41,67:1
42,16:1
42,40:2
42,41:1
42,43:1
42,44:2
42,45:1
42,46:1
42,47:1
42,48:2
42,49:1
42,50:2
42,51:2
42,52:2
42,54:1
42,55:1
42,56:1
42,57:1
42,58:1
42,59:2
42,60:1
42,61:1
42,62:1
42,64:2
42,65:2
42,66:1
42,67:2
43,21:1
43,30:1
43,40:1
43,42:1
43,44:1
43,59:1
43,60:2
43,63:1
43,64:1
43,65:1
43,67:1
44,16:1
44,21:2
44,30:2
44,41:1
44,42:2
44,43:1
44,45:1
44,46:1
44,47:1
44,49:1
44,54:1
44,55:1
44,56:1
44,57:1
44,58:1
44,60:3
44,61:1
44,62:1
44,63:2
44,66:1
45,21:1
45,30:1
45,40:1
45,42:1
45,44:1
45,59:1
45,60:2
45,63:1
45,64:1
45,65:1
45,67:1
46,21:1
46,30:1
46,40:1
46,42:1
46,44:1
46,59:1
46,60:2
46,63:1
46,64:1
46,65:1
46,67:1
47,21:1
47,30:1
47,40:1
47,42:1
47,44:1
47,48:1
47,59:1
47,60:2
47,63:1
47,64:1
47,65:1
47,67:1
48,16:1
48,21:2
48,30:2
48,41:1
48,42:2
48,49:1
48,53:2
48,54:1
48,55:1
48,56:1
48,57:1
48,58:1
48,60:3
48,61:1
48,62:1
48,63:2
48,66:1
48,68:2
48,69:2
48,70:2
48,71:2
48,72:2
48,73:2
48,74:2
48,75:2
48,76:2
48,77:2
48,78:2
48,79:2
48,80:3
48,81:3
48,82:3
48,83:3
48,84:3
49,21:1
49,30:1
49,40:1
49,42:1
49,44:1
49,48:1
49,50:1
49,59:1
49,60:2
49,63:1
49,64:1
49,65:1
49,67:1
50,16:1
50,21:2
50,30:2
50,41:1
50,42:2
50,54:1
50,55:1
50,56:1
50,57:1
50,58:1
50,60:3
50,61:1
50,62:1
50,63:2
50,66:1
51,16:1
51,21:2
51,30:2
51,41:1
51,42:2
51,54:1
51,55:1
51,56:1
51,57:1
51,58:1
51,60:3
51,61:1
51,62:1
51,63:2
51,66:1
52,16:1
52,21:2
52,30:2
52,41:1
52,42:2
52,53:2
52,54:1
52,55:1
52,56:1
52,57:1
52,58:1
52,60:3
52,61:1
52,62:1
52,63:2
52,66:1
53,16:1
53,48:2
53,54:1
53,55:1
53,56:1
53,57:1
53,58:1
53,59:2
53,60:1
53,61:1
53,62:1
53,64:2
53,65:2
53,66:1
53,67:2
54,22:1
54,23:1
54,24:1
54,25:1
54,26:1
54,28:1
54,29:1
54,31:1
54,32:1
54,33:1
54,34:1
54,35:1
54,36:2
54,37:1
54,38:2
54,39:2
54,40:1
54,42:1
54,44:1
54,48:1
54,50:1
54,51:1
54,52:1
54,53:1
54,68:1
54,69:1
54,70:1
54,71:1
54,72:1
54,80:2
55,22:1
55,23:1
55,24:1
55,25:1
55,26:1
55,28:1
55,29:1
55,31:1
55,32:1
55,33:1
55,34:1
55,35:1
55,36:2
55,37:1
55,38:2
55,39:2
55,40:1
55,42:1
55,44:1
55,48:1
55,50:1
55,51:1
55,52:1
55,53:1
55,68:1
55,69:1
55,70:1
55,71:1
55,72:1
55,80:2
56,22:1
56,23:1
56,24:1
56,25:1
56,26:1
56,28:1
56,29:1
56,31:1
56,32:1
56,33:1
56,34:1
56,35:1
56,36:2
56,37:1
56,38:2
56,39:2
56,40:1
56,42:1
56,44:1
56,48:1
56,50:1
56,51:1
56,52:1
56,53:1
56,68:1
56,69:1
56,70:1
56,71:1
56,72:1
56,80:2
57,22:1
57,23:1
57,24:1
57,25:1
57,26:1
57,28:1
57,29:1
57,31:1
57,32:1
57,33:1
57,34:1
57,35:1
57,36:2
57,37:1
57,38:2
57,39:2
57,40:1
57,42:1
57,44:1
57,48:1
57,50:1
57,51:1
57,52:1
57,53:1
57,59:1
57,60:2
57,63:1
57,64:1
57,65:1
57,68:1
57,69:1
57,70:1
57,71:1
57,72:1
57,80:2
58,22:1
58,23:1
58,24:1
58,25:1
58,26:1
58,28:1
58,29:1
58,31:1
58,32:1
58,33:1
58,34:1
58,35:1
58,36:2
58,37:1
58,38:2
58,39:2
58,40:1
58,42:1
58,44:1
58,48:1
58,50:1
58,51:1
58,52:1
58,53:1
58,59:1
58,60:2
58,63:1
58,64:1
58,65:1
58,67:1
58,68:1
58,69:1
58,70:1
58,71:1
58,72:1
58,80:2
59,19:1
59,22:2
59,23:2
59,24:2
59,25:2
59,26:2
59,27:1
59,28:2
59,29:2
59,31:2
59,32:2
59,33:2
59,36:3
59,38:3
59,39:3
59,41:1
59,42:2
59,43:1
59,45:1
59,46:1
59,47:1
59,49:1
59,53:2
59,58:1
59,60:3
59,61:1
59,62:1
59,63:2
59,66:1
59,68:2
59,69:2
59,70:2
59,71:2
59,72:2
59,80:3
60,19:2
60,22:1
60,23:1
60,24:1
60,25:1
60,26:1
60,27:2
60,28:1
60,29:1
60,31:1
60,32:1
60,33:1
60,34:3
60,35:3
60,37:3
60,40:3
60,41:2
60,42:1
60,43:2
60,44:3
60,45:2
60,46:2
60,47:2
60,48:3
60,49:2
60,50:3
60,51:3
60,52:3
60,53:1
60,58:2
60,59:3
60,61:2
60,62:2
60,63:1
60,64:3
60,65:3
60,66:2
60,67:3
60,68:1
60,69:1
60,70:1
60,71:1
60,72:1
61,22:1
61,23:1
61,24:1
61,25:1
61,26:1
61,28:1
61,29:1
61,31:1
61,32:1
61,33:1
61,34:1
61,35:1
61,36:2
61,37:1
61,38:2
61,39:2
61,40:1
61,42:1
61,44:1
61,48:1
61,50:1
61,51:1
61,52:1
61,53:1
61,59:1
61,60:2
61,63:1
61,64:1
61,65:1
61,67:1
61,68:1
61,69:1
61,70:1
61,71:1
61,72:1
61,80:2
62,22:1
62,23:1
62,24:1
62,25:1
62,26:1
62,28:1
62,29:1
62,31:1
62,32:1
62,33:1
62,34:1
62,35:1
62,36:2
62,37:1
62,38:2
62,39:2
62,40:1
62,42:1
62,44:1
62,48:1
62,50:1
62,51:1
62,52:1
62,53:1
62,59:1
62,60:2
62,63:1
62,64:1
62,65:1
62,67:1
62,68:1
62,69:1
62,70:1
62,71:1
62,72:1
62,80:2
63,19:1
63,27:1
63,34:2
63,35:2
63,36:1
63,37:2
63,38:1
63,39:1
63,40:2
63,41:1
63,43:1
63,44:2
63,45:1
63,46:1
63,47:1
63,48:2
63,49:1
63,50:2
63,51:2
63,52:2
63,58:1
63,59:2
63,60:1
63,61:1
63,62:1
63,64:2
63,65:2
63,66:1
63,67:2
63,80:1
64,19:1
64,22:2
64,23:2
64,24:2
64,25:2
64,26:2
64,27:1
64,28:2
64,29:2
64,31:2
64,32:2
64,33:2
64,36:3
64,38:3
64,39:3
64,41:1
64,42:2
64,43:1
64,45:1
64,46:1
64,47:1
64,49:1
64,53:2
64,58:1
64,60:3
64,61:1
64,62:1
64,63:2
64,66:1
64,68:2
64,69:2
64,70:2
64,71:2
64,72:2
64,80:3
65,19:1
65,22:2
65,23:2
65,24:2
65,25:2
65,26:2
65,27:1
65,28:2
65,29:2
65,31:2
65,32:2
65,33:2
65,36:3
65,38:3
65,39:3
65,41:1
65,42:2
65,43:1
65,45:1
65,46:1
65,47:1
65,49:1
65,53:2
65,58:1
65,60:3
65,61:1
65,62:1
65,63:2
65,66:1
65,68:2
65,69:2
65,70:2
65,71:2
65,72:2
65,80:3
66,22:1
66,23:1
66,24:1
66,25:1
66,26:1
66,28:1
66,29:1
66,31:1
66,32:1
66,33:1
66,34:1
66,35:1
66,36:2
66,37:1
66,38:2
66,39:2
66,40:1
66,42:1
66,44:1
66,48:1
66,50:1
66,51:1
66,52:1
66,53:1
66,59:1
66,60:2
66,63:1
66,64:1
66,65:1
66,67:1
66,68:1
66,69:1
66,70:1
66,71:1
66,72:1
66,80:2
67,19:1
67,22:2
67,23:2
67,24:2
67,25:2
67,26:2
67,27:1
67,28:2
67,29:2
67,31:2
67,32:2
67,33:2
67,36:3
67,38:3
67,39:3
67,41:1
67,42:2
67,43:1
67,45:1
67,46:1
67,47:1
67,49:1
67,53:2
67,68:2
67,69:2
67,70:2
67,71:2
67,72:2
67,73:2
67,80:3
68,16:1
68,48:2
68,54:1
68,55:1
68,56:1
68,57:1
68,58:1
68,59:2
68,60:1
68,61:1
68,62:1
68,64:2
68,65:2
68,66:1
68,67:2
69,16:1
69,48:2
69,54:1
69,55:1
69,56:1
69,57:1
69,58:1
69,59:2
69,60:1
69,61:1
69,62:1
69,64:2
69,65:2
69,66:1
69,67:2
70,16:1
70,48:2
70,54:1
70,55:1
70,56:1
70,57:1
70,58:1
70,59:2
70,60:1
70,61:1
70,62:1
70,64:2
70,65:2
70,66:1
70,67:2
71,16:1
71,48:2
71,54:1
71,55:1
71,56:1
71,57:1
71,58:1
71,59:2
71,60:1
71,61:1
71,62:1
71,64:2
71,65:2
71,66:1
71,67:2
71,80:1
72,16:1
72,48:2
72,54:1
72,55:1
72,56:1
72,57:1
72,58:1
72,59:2
72,60:1
72,61:1
72,62:1
72,64:2
72,65:2
72,66:1
72,67:2
72,80:1
73,48:2
73,80:1
74,48:2
74,80:1
75,48:2
75,80:1
76,48:2
76,80:1
76,81:1
77,48:2
77,80:1
78,48:2
78,80:1
79,48:2
79,80:1
79,81:1
80,16:2
80,21:1
80,30:1
80,48:3
80,54:2
80,55:2
80,56:2
80,57:2
80,58:2
80,59:3
80,61:2
80,62:2
80,63:1
80,64:3
80,65:3
80,66:2
80,67:3
80,71:1
80,73:1
80,74:1
80,75:1
80,76:1
80,77:1
80,78:1
80,79:1
81,48:3
81,85:3
82,48:3
82,85:3
83,48:3
83,85:3
83,86:3
84,48:3
84,85:3
84,86:3
85,82:3
85,83:3
85,84:3

<setup times backward>
5,1:1
5,2:1
5,3:1
5,4:1
5,6:1
5,7:1
5,8:1
5,9:2
5,30:1
6,9:1
7,9:1
8,9:1
8,15:1
8,16:1
8,17:1
10,1:1
10,2:1
10,3:1
10,4:1
10,6:1
10,7:1
10,8:1
10,9:2
10,30:1
11,1:1
11,2:1
11,3:1
11,4:1
11,6:1
11,7:1
11,8:1
11,9:2
11,30:1
12,1:1
12,2:1
12,3:1
12,4:1
12,6:1
12,7:1
12,8:1
12,9:2
12,30:1
13,1:1
13,2:1
13,3:1
13,4:1
13,6:1
13,7:1
13,8:1
13,9:2
13,30:1
14,1:1
14,2:1
14,3:1
14,4:1
14,6:1
14,7:1
14,8:1
14,9:2
14,30:1
16,34:1
16,35:1
16,37:1
16,40:1
16,44:1
16,48:1
16,50:1
16,51:1
16,52:1
19,59:1
19,64:1
19,65:1
19,67:1
20,9:1
20,15:1
20,16:1
20,17:1
20,18:1
20,19:1
20,27:1
21,9:1
21,15:1
21,16:1
21,17:1
21,18:1
21,19:1
21,27:1
21,34:2
21,35:2
21,37:2
21,40:2
21,41:1
21,43:1
21,44:2
21,45:1
21,46:1
21,47:1
21,48:2
21,49:1
21,50:2
21,51:2
21,52:2
22,9:1
22,15:1
22,16:1
22,17:1
22,18:1
22,19:1
22,54:1
22,55:1
22,56:1
22,57:1
22,58:1
22,59:2
22,61:1
22,62:1
22,64:2
22,65:2
22,66:1
22,67:2
23,9:1
23,15:1
23,16:1
23,17:1
23,18:1
23,19:1
23,54:1
23,55:1
23,56:1
23,57:1
23,58:1
23,59:2
23,61:1
23,62:1
23,64:2
23,65:2
23,66:1
23,67:2
24,9:1
24,15:1
24,16:1
24,17:1
24,18:1
24,19:1
24,54:1
24,55:1
24,56:1
24,57:1
24,58:1
24,59:2
24,61:1
24,62:1
24,64:2
24,65:2
24,66:1
24,67:2
25,9:1
25,15:1
25,16:1
25,17:1
25,18:1
25,19:1
25,54:1
25,55:1
25,56:1
25,57:1
25,58:1
25,59:2
25,61:1
25,62:1
25,64:2
25,65:2
25,66:1
25,67:2
26,9:1
26,15:1
26,16:1
26,17:1
26,18:1
26,19:1
26,27:1
26,34:2
26,35:2
26,54:1
26,55:1
26,56:1
26,57:1
26,58:1
26,59:2
26,61:1
26,62:1
26,64:2
26,65:2
26,66:1
26,67:2
27,59:1
27,64:1
27,65:1
27,67:1
28,9:1
28,15:1
28,16:1
28,17:1
28,18:1
28,19:1
28,27:1
28,54:1
28,55:1
28,56:1
28,57:1
28,58:1
28,59:2
28,61:1
28,62:1
28,64:2
28,65:2
28,66:1
28,67:2
29,9:1
29,15:1
29,16:1
29,17:1
29,18:1
29,19:1
29,27:1
29,54:1
29,55:1
29,56:1
29,57:1
29,58:1
29,59:2
29,61:1
29,62:1
29,64:2
29,65:2
29,66:1
29,67:2
30,9:1
30,15:1
30,16:1
30,17:1
30,18:1
30,19:1
30,27:1
30,34:2
30,35:2
30,37:2
30,40:2
30,41:1
30,43:1
30,44:2
30,45:1
30,46:1
30,47:1
30,48:2
30,49:1
30,50:2
30,51:2
30,52:2
31,9:1
31,15:1
31,16:1
31,17:1
31,18:1
31,19:1
31,27:1
31,54:1
31,55:1
31,56:1
31,57:1
31,58:1
31,59:2
31,61:1
31,62:1
31,64:2
31,65:2
31,66:1
31,67:2
32,9:1
32,15:1
32,16:1
32,17:1
32,18:1
32,19:1
32,27:1
32,54:1
32,55:1
32,56:1
32,57:1
32,58:1
32,59:2
32,61:1
32,62:1
32,64:2
32,65:2
32,66:1
32,67:2
33,9:1
33,15:1
33,16:1
33,17:1
33,18:1
33,19:1
33,27:1
33,54:1
33,55:1
33,56:1
33,57:1
33,58:1
33,59:2
33,61:1
33,62:1
33,64:2
33,65:2
33,66:1
33,67:2
36,1:1
36,2:1
36,3:1
36,4:1
36,6:1
36,7:1
36,8:1
36,9:2
36,15:2
36,16:2
36,17:2
36,18:2
36,19:2
36,20:1
36,21:1
36,22:1
36,23:1
36,24:1
36,25:1
36,26:1
36,27:2
36,28:1
36,29:1
36,30:1
36,31:1
36,32:1
36,33:1
36,34:3
36,35:3
36,37:3
36,54:2
36,55:2
36,56:2
36,57:2
36,58:2
36,59:3
36,61:2
36,62:2
36,63:1
36,64:3
36,65:3
36,66:2
36,67:3
38,1:1
38,2:1
38,3:1
38,4:1
38,6:1
38,7:1
38,8:1
38,9:2
38,15:2
38,16:2
38,17:2
38,18:2
38,19:2
38,20:1
38,21:1
38,22:1
38,23:1
38,24:1
38,25:1
38,26:1
38,27:2
38,28:1
38,29:1
38,30:1
38,31:1
38,32:1
38,33:1
38,34:3
38,35:3
38,37:3
38,54:2
38,55:2
38,56:2
38,57:2
38,58:2
38,59:3
38,61:2
38,62:2
38,63:1
38,64:3
38,65:3
38,66:2
38,67:3
39,1:1
39,2:1
39,3:1
39,4:1
39,6:1
39,7:1
39,8:1
39,9:2
39,15:2
39,16:2
39,17:2
39,18:2
39,19:2
39,20:1
39,21:1
39,22:1
39,23:1
39,24:1
39,25:1
39,26:1
39,27:2
39,28:1
39,29:1
39,30:1
39,31:1
39,32:1
39,33:1
39,34:3
39,35:3
39,37:3
39,54:2
39,55:2
39,56:2
39,57:2
39,58:2
39,59:3
39,61:2
39,62:2
39,63:1
39,64:3
39,65:3
39,66:2
39,67:3
41,34:1
41,35:1
41,37:1
41,40:1
41,44:1
41,48:1
41,50:1
41,51:1
41,52:1
41,59:1
41,64:1
41,65:1
41,67:1
42,9:1
42,15:1
42,16:1
42,17:1
42,18:1
42,19:1
42,27:1
42,34:2
42,35:2
42,37:2
42,40:2
42,41:1
42,43:1
42,44:2
42,45:1
42,46:1
42,47:1
42,48:2
42,49:1
42,50:2
42,51:2
42,52:2
42,54:1
42,55:1
42,56:1
42,57:1
42,58:1
42,59:2
42,61:1
42,62:1
42,64:2
42,65:2
42,66:1
42,67:2
43,34:1
43,35:1
43,37:1
43,40:1
43,44:1
43,59:1
43,64:1
43,65:1
43,67:1
45,34:1
45,35:1
45,37:1
45,40:1
45,44:1
45,59:1
45,64:1
45,65:1
45,67:1
46,34:1
46,35:1
46,37:1
46,40:1
46,44:1
46,59:1
46,64:1
46,65:1
46,67:1
47,34:1
47,35:1
47,37:1
47,40:1
47,44:1
47,59:1
47,64:1
47,65:1
47,67:1
49,34:1
49,35:1
49,37:1
49,40:1
49,44:1
49,48:1
49,59:1
49,64:1
49,65:1
49,67:1
53,9:1
53,15:1
53,16:1
53,17:1
53,18:1
53,19:1
53,27:1
53,34:2
53,35:2
53,37:2
53,40:2
53,41:1
53,43:1
53,44:2
53,45:1
53,46:1
53,47:1
53,48:2
53,49:1
53,50:2
53,51:2
53,52:2
53,54:1
53,55:1
53,56:1
53,57:1
53,58:1
53,59:2
53,61:1
53,62:1
53,64:2
53,65:2
53,66:1
53,67:2
54,34:1
54,35:1
54,37:1
54,40:1
54,44:1
54,48:1
54,50:1
54,51:1
54,52:1
55,34:1
55,35:1
55,37:1
55,40:1
55,44:1
55,48:1
55,50:1
55,51:1
55,52:1
56,34:1
56,35:1
56,37:1
56,40:1
56,44:1
56,48:1
56,50:1
56,51:1
56,52:1
57,34:1
57,35:1
57,37:1
57,40:1
57,44:1
57,48:1
57,50:1
57,51:1
57,52:1
58,34:1
58,35:1
58,37:1
58,40:1
58,44:1
58,48:1
58,50:1
58,51:1
58,52:1
58,59:1
58,64:1
58,65:1
60,1:1
60,2:1
60,3:1
60,4:1
60,6:1
60,7:1
60,8:1
60,9:2
60,15:2
60,16:2
60,17:2
60,18:2
60,19:2
60,20:1
60,21:1
60,22:1
60,23:1
60,24:1
60,25:1
60,26:1
60,27:2
60,28:1
60,29:1
60,30:1
60,31:1
60,32:1
60,33:1
60,34:3
60,35:3
60,37:3
60,40:3
60,41:2
60,42:1
60,43:2
60,44:3
60,45:2
60,46:2
60,47:2
60,48:3
60,49:2
60,50:3
60,51:3
60,52:3
60,53:1
60,54:2
60,55:2
60,56:2
60,57:2
60,58:2
60,59:3
60,61:2
60,62:2
60,63:1
60,64:3
60,65:3
60,66:2
60,68:1
60,69:1
60,70:1
60,71:1
60,72:1
61,34:1
61,35:1
61,37:1
61,40:1
61,44:1
61,48:1
61,50:1
61,51:1
61,52:1
61,59:1
61,64:1
61,65:1
62,34:1
62,35:1
62,37:1
62,40:1
62,44:1
62,48:1
62,50:1
62,51:1
62,52:1
62,59:1
62,64:1
62,65:1
63,9:1
63,15:1
63,16:1
63,17:1
63,18:1
63,19:1
63,27:1
63,34:2
63,35:2
63,37:2
63,40:2
63,41:1
63,43:1
63,44:2
63,45:1
63,46:1
63,47:1
63,48:2
63,49:1
63,50:2
63,51:2
63,52:2
63,54:1
63,55:1
63,56:1
63,57:1
63,58:1
63,59:2
63,61:1
63,62:1
63,64:2
63,65:2
63,66:1
66,34:1
66,35:1
66,37:1
66,40:1
66,44:1
66,48:1
66,50:1
66,51:1
66,52:1
66,59:1
66,64:1
66,65:1
68,9:1
68,15:1
68,16:1
68,17:1
68,18:1
68,19:1
68,27:1
68,34:2
68,35:2
68,37:2
68,40:2
68,41:1
68,43:1
68,44:2
68,45:1
68,46:1
68,47:1
68,48:2
68,49:1
68,50:2
68,51:2
68,52:2
68,54:1
68,55:1
68,56:1
68,57:1
68,58:1
68,59:2
68,61:1
68,62:1
68,64:2
68,65:2
68,66:1
68,67:2
69,9:1
69,15:1
69,16:1
69,17:1
69,18:1
69,19:1
69,27:1
69,34:2
69,35:2
69,37:2
69,40:2
69,41:1
69,43:1
69,44:2
69,45:1
69,46:1
69,47:1
69,48:2
69,49:1
69,50:2
69,51:2
69,52:2
69,54:1
69,55:1
69,56:1
69,57:1
69,58:1
69,59:2
69,61:1
69,62:1
69,64:2
69,65:2
69,66:1
69,67:2
70,9:1
70,15:1
70,16:1
70,17:1
70,18:1
70,19:1
70,27:1
70,34:2
70,35:2
70,37:2
70,40:2
70,41:1
70,43:1
70,44:2
70,45:1
70,46:1
70,47:1
70,48:2
70,49:1
70,50:2
70,51:2
70,52:2
70,54:1
70,55:1
70,56:1
70,57:1
70,58:1
70,59:2
70,61:1
70,62:1
70,64:2
70,65:2
70,66:1
70,67:2
71,9:1
71,15:1
71,16:1
71,17:1
71,18:1
71,19:1
71,27:1
71,34:2
71,35:2
71,37:2
71,40:2
71,41:1
71,43:1
71,44:2
71,45:1
71,46:1
71,47:1
71,48:2
71,49:1
71,50:2
71,51:2
71,52:2
71,54:1
71,55:1
71,56:1
71,57:1
71,58:1
71,59:2
71,61:1
71,62:1
71,64:2
71,65:2
71,66:1
71,67:2
72,9:1
72,15:1
72,16:1
72,17:1
72,18:1
72,19:1
72,27:1
72,34:2
72,35:2
72,37:2
72,40:2
72,41:1
72,43:1
72,44:2
72,45:1
72,46:1
72,47:1
72,48:2
72,49:1
72,50:2
72,51:2
72,52:2
72,54:1
72,55:1
72,56:1
72,57:1
72,58:1
72,59:2
72,61:1
72,62:1
72,64:2
72,65:2
72,66:1
72,67:2
73,9:1
73,15:1
73,16:1
73,17:1
73,18:1
73,19:1
73,27:1
73,34:2
73,35:2
73,37:2
73,40:2
73,41:1
73,43:1
73,44:2
73,45:1
73,46:1
73,47:1
73,48:2
73,49:1
73,50:2
73,51:2
73,52:2
73,54:1
73,55:1
73,56:1
73,57:1
73,58:1
73,59:2
73,61:1
73,62:1
73,64:2
73,65:2
73,66:1
73,67:2
74,9:1
74,15:1
74,16:1
74,17:1
74,18:1
74,19:1
74,27:1
74,34:2
74,35:2
74,37:2
74,40:2
74,41:1
74,43:1
74,44:2
74,45:1
74,46:1
74,47:1
74,48:2
74,49:1
74,50:2
74,51:2
74,52:2
74,54:1
74,55:1
74,56:1
74,57:1
74,58:1
74,59:2
74,61:1
74,62:1
74,64:2
74,65:2
74,66:1
74,67:2
75,9:1
75,15:1
75,16:1
75,17:1
75,18:1
75,19:1
75,27:1
75,34:2
75,35:2
75,37:2
75,40:2
75,41:1
75,43:1
75,44:2
75,45:1
75,46:1
75,47:1
75,48:2
75,49:1
75,50:2
75,51:2
75,52:2
75,54:1
75,55:1
75,56:1
75,57:1
75,58:1
75,59:2
75,61:1
75,62:1
75,64:2
75,65:2
75,66:1
75,67:2
76,9:1
76,15:1
76,16:1
76,17:1
76,18:1
76,19:1
76,27:1
76,34:2
76,35:2
76,37:2
76,40:2
76,41:1
76,43:1
76,44:2
76,45:1
76,46:1
76,47:1
76,48:2
76,49:1
76,50:2
76,51:2
76,52:2
76,54:1
76,55:1
76,56:1
76,57:1
76,58:1
76,59:2
76,61:1
76,62:1
76,64:2
76,65:2
76,66:1
76,67:2
77,9:1
77,15:1
77,16:1
77,17:1
77,18:1
77,19:1
77,27:1
77,34:2
77,35:2
77,37:2
77,40:2
77,41:1
77,43:1
77,44:2
77,45:1
77,46:1
77,47:1
77,48:2
77,49:1
77,50:2
77,51:2
77,52:2
77,54:1
77,55:1
77,56:1
77,57:1
77,58:1
77,59:2
77,61:1
77,62:1
77,64:2
77,65:2
77,66:1
77,67:2
78,9:1
78,15:1
78,16:1
78,17:1
78,18:1
78,19:1
78,27:1
78,34:2
78,35:2
78,37:2
78,40:2
78,41:1
78,43:1
78,44:2
78,45:1
78,46:1
78,47:1
78,48:2
78,49:1
78,50:2
78,51:2
78,52:2
78,54:1
78,55:1
78,56:1
78,57:1
78,58:1
78,59:2
78,61:1
78,62:1
78,64:2
78,65:2
78,66:1
78,67:2
79,9:1
79,15:1
79,16:1
79,17:1
79,18:1
79,19:1
79,27:1
79,34:2
79,35:2
79,37:2
79,40:2
79,41:1
79,43:1
79,44:2
79,45:1
79,46:1
79,47:1
79,48:2
79,49:1
79,50:2
79,51:2
79,52:2
79,54:1
79,55:1
79,56:1
79,57:1
79,58:1
79,59:2
79,61:1
79,62:1
79,64:2
79,65:2
79,66:1
79,67:2
80,1:1
80,2:1
80,3:1
80,4:1
80,6:1
80,7:1
80,8:1
80,9:2
80,15:2
80,16:2
80,17:2
80,18:2
80,19:2
80,20:1
80,21:1
80,22:1
80,23:1
80,24:1
80,25:1
80,26:1
80,27:2
80,28:1
80,29:1
80,30:1
80,31:1
80,32:1
80,33:1
80,34:3
80,35:3
80,37:3
80,40:3
80,41:2
80,42:1
80,43:2
80,44:3
80,45:2
80,46:2
80,47:2
80,48:3
80,49:2
80,50:3
80,51:3
80,52:3
80,53:1
80,54:2
80,55:2
80,56:2
80,57:2
80,58:2
80,59:3
80,61:2
80,62:2
80,63:1
80,64:3
80,65:3
80,66:2
80,67:3
80,68:1
80,69:1
80,70:1
80,71:1
80,72:1
80,73:1
80,74:1
80,75:1
80,76:1
80,77:1
80,78:1
80,79:1
81,1:1
81,2:1
81,3:1
81,4:1
81,6:1
81,7:1
81,8:1
81,9:2
81,15:2
81,16:2
81,17:2
81,18:2
81,19:2
81,20:1
81,21:1
81,22:1
81,23:1
81,24:1
81,25:1
81,26:1
81,27:2
81,28:1
81,29:1
81,30:1
81,31:1
81,32:1
81,33:1
81,34:3
81,35:3
81,37:3
81,40:3
81,41:2
81,42:1
81,43:2
81,44:3
81,45:2
81,46:2
81,47:2
81,48:3
81,49:2
81,50:3
81,51:3
81,52:3
81,53:1
81,54:2
81,55:2
81,56:2
81,57:2
81,58:2
81,59:3
81,61:2
81,62:2
81,63:1
81,64:3
81,65:3
81,66:2
81,67:3
81,68:1
81,69:1
81,70:1
81,71:1
81,72:1
81,73:1
81,74:1
81,75:1
81,76:1
81,77:1
81,78:1
81,79:1
82,1:1
82,2:1
82,3:1
82,4:1
82,6:1
82,7:1
82,8:1
82,9:2
82,15:2
82,16:2
82,17:2
82,18:2
82,19:2
82,20:1
82,21:1
82,22:1
82,23:1
82,24:1
82,25:1
82,26:1
82,27:2
82,28:1
82,29:1
82,30:1
82,31:1
82,32:1
82,33:1
82,34:3
82,35:3
82,37:3
82,40:3
82,41:2
82,42:1
82,43:2
82,44:3
82,45:2
82,46:2
82,47:2
82,48:3
82,49:2
82,50:3
82,51:3
82,52:3
82,53:1
82,54:2
82,55:2
82,56:2
82,57:2
82,58:2
82,59:3
82,61:2
82,62:2
82,63:1
82,64:3
82,65:3
82,66:2
82,67:3
82,68:1
82,69:1
82,70:1
82,71:1
82,72:1
82,73:1
82,74:1
82,75:1
82,76:1
82,77:1
82,78:1
82,79:1
82,85:3
83,1:1
83,2:1
83,3:1
83,4:1
83,6:1
83,7:1
83,8:1
83,9:2
83,15:2
83,16:2
83,17:2
83,18:2
83,19:2
83,20:1
83,21:1
83,22:1
83,23:1
83,24:1
83,25:1
83,26:1
83,27:2
83,28:1
83,29:1
83,30:1
83,31:1
83,32:1
83,33:1
83,34:3
83,35:3
83,37:3
83,40:3
83,41:2
83,42:1
83,43:2
83,44:3
83,45:2
83,46:2
83,47:2
83,48:3
83,49:2
83,50:3
83,51:3
83,52:3
83,53:1
83,54:2
83,55:2
83,56:2
83,57:2
83,58:2
83,59:3
83,61:2
83,62:2
83,63:1
83,64:3
83,65:3
83,66:2
83,67:3
83,68:1
83,69:1
83,70:1
83,71:1
83,72:1
83,73:1
83,74:1
83,75:1
83,76:1
83,77:1
83,78:1
83,79:1
83,85:3
84,1:1
84,2:1
84,3:1
84,4:1
84,6:1
84,7:1
84,8:1
84,9:2
84,15:2
84,16:2
84,17:2
84,18:2
84,19:2
84,20:1
84,21:1
84,22:1
84,23:1
84,24:1
84,25:1
84,26:1
84,27:2
84,28:1
84,29:1
84,30:1
84,31:1
84,32:1
84,33:1
84,34:3
84,35:3
84,37:3
84,40:3
84,41:2
84,42:1
84,43:2
84,44:3
84,45:2
84,46:2
84,47:2
84,48:3
84,49:2
84,50:3
84,51:3
84,52:3
84,53:1
84,54:2
84,55:2
84,56:2
84,57:2
84,58:2
84,59:3
84,61:2
84,62:2
84,63:1
84,64:3
84,65:3
84,66:2
84,67:3
84,68:1
84,69:1
84,70:1
84,71:1
84,72:1
84,73:1
84,74:1
84,75:1
84,76:1
84,77:1
84,78:1
84,79:1
84,85:3

<end>

<optimal SALBP-1 value>
15


<rand seed>
467321153

<Lower Bounds>
Lm1=15
Lms1=15
Lm2=3
Lm3=5
Lm4=15
Best=15

<Optimal Stations (Iterations: 10)>
17
